c File: flat50_3_0.col
c
c SOURCE: Joseph Culberson (joe@cs.ualberta.ca)
c DESCRIPTION: Quasi-random coloring problem
c              generated with flatness = 0
c                             probability = 0.139
c                             known coloring = 3
c                             random seed = 1982
c              Creation Date:  Tue Jun  9 12:22:44 1998
c Maximum degree = 8 Minimum degree = 1
c p edge 50 115
c cnf created by edge2cnf
p cnf 150 545
-1 -2 0
-1 -3 0
-2 -3 0
1 2 3 0
-4 -5 0
-4 -6 0
-5 -6 0
4 5 6 0
-7 -8 0
-7 -9 0
-8 -9 0
7 8 9 0
-10 -11 0
-10 -12 0
-11 -12 0
10 11 12 0
-13 -14 0
-13 -15 0
-14 -15 0
13 14 15 0
-16 -17 0
-16 -18 0
-17 -18 0
16 17 18 0
-19 -20 0
-19 -21 0
-20 -21 0
19 20 21 0
-22 -23 0
-22 -24 0
-23 -24 0
22 23 24 0
-25 -26 0
-25 -27 0
-26 -27 0
25 26 27 0
-28 -29 0
-28 -30 0
-29 -30 0
28 29 30 0
-31 -32 0
-31 -33 0
-32 -33 0
31 32 33 0
-34 -35 0
-34 -36 0
-35 -36 0
34 35 36 0
-37 -38 0
-37 -39 0
-38 -39 0
37 38 39 0
-40 -41 0
-40 -42 0
-41 -42 0
40 41 42 0
-43 -44 0
-43 -45 0
-44 -45 0
43 44 45 0
-46 -47 0
-46 -48 0
-47 -48 0
46 47 48 0
-49 -50 0
-49 -51 0
-50 -51 0
49 50 51 0
-52 -53 0
-52 -54 0
-53 -54 0
52 53 54 0
-55 -56 0
-55 -57 0
-56 -57 0
55 56 57 0
-58 -59 0
-58 -60 0
-59 -60 0
58 59 60 0
-61 -62 0
-61 -63 0
-62 -63 0
61 62 63 0
-64 -65 0
-64 -66 0
-65 -66 0
64 65 66 0
-67 -68 0
-67 -69 0
-68 -69 0
67 68 69 0
-70 -71 0
-70 -72 0
-71 -72 0
70 71 72 0
-73 -74 0
-73 -75 0
-74 -75 0
73 74 75 0
-76 -77 0
-76 -78 0
-77 -78 0
76 77 78 0
-79 -80 0
-79 -81 0
-80 -81 0
79 80 81 0
-82 -83 0
-82 -84 0
-83 -84 0
82 83 84 0
-85 -86 0
-85 -87 0
-86 -87 0
85 86 87 0
-88 -89 0
-88 -90 0
-89 -90 0
88 89 90 0
-91 -92 0
-91 -93 0
-92 -93 0
91 92 93 0
-94 -95 0
-94 -96 0
-95 -96 0
94 95 96 0
-97 -98 0
-97 -99 0
-98 -99 0
97 98 99 0
-100 -101 0
-100 -102 0
-101 -102 0
100 101 102 0
-103 -104 0
-103 -105 0
-104 -105 0
103 104 105 0
-106 -107 0
-106 -108 0
-107 -108 0
106 107 108 0
-109 -110 0
-109 -111 0
-110 -111 0
109 110 111 0
-112 -113 0
-112 -114 0
-113 -114 0
112 113 114 0
-115 -116 0
-115 -117 0
-116 -117 0
115 116 117 0
-118 -119 0
-118 -120 0
-119 -120 0
118 119 120 0
-121 -122 0
-121 -123 0
-122 -123 0
121 122 123 0
-124 -125 0
-124 -126 0
-125 -126 0
124 125 126 0
-127 -128 0
-127 -129 0
-128 -129 0
127 128 129 0
-130 -131 0
-130 -132 0
-131 -132 0
130 131 132 0
-133 -134 0
-133 -135 0
-134 -135 0
133 134 135 0
-136 -137 0
-136 -138 0
-137 -138 0
136 137 138 0
-139 -140 0
-139 -141 0
-140 -141 0
139 140 141 0
-142 -143 0
-142 -144 0
-143 -144 0
142 143 144 0
-145 -146 0
-145 -147 0
-146 -147 0
145 146 147 0
-148 -149 0
-148 -150 0
-149 -150 0
148 149 150 0
-148 -1 0
-149 -2 0
-150 -3 0
-70 -4 0
-71 -5 0
-72 -6 0
-85 -4 0
-86 -5 0
-87 -6 0
-88 -4 0
-89 -5 0
-90 -6 0
-127 -4 0
-128 -5 0
-129 -6 0
-142 -4 0
-143 -5 0
-144 -6 0
-64 -7 0
-65 -8 0
-66 -9 0
-82 -7 0
-83 -8 0
-84 -9 0
-88 -7 0
-89 -8 0
-90 -9 0
-112 -7 0
-113 -8 0
-114 -9 0
-115 -7 0
-116 -8 0
-117 -9 0
-73 -10 0
-74 -11 0
-75 -12 0
-85 -10 0
-86 -11 0
-87 -12 0
-91 -10 0
-92 -11 0
-93 -12 0
-127 -10 0
-128 -11 0
-129 -12 0
-133 -10 0
-134 -11 0
-135 -12 0
-73 -13 0
-74 -14 0
-75 -15 0
-76 -13 0
-77 -14 0
-78 -15 0
-97 -13 0
-98 -14 0
-99 -15 0
-112 -13 0
-113 -14 0
-114 -15 0
-121 -13 0
-122 -14 0
-123 -15 0
-139 -13 0
-140 -14 0
-141 -15 0
-148 -13 0
-149 -14 0
-150 -15 0
-55 -16 0
-56 -17 0
-57 -18 0
-76 -16 0
-77 -17 0
-78 -18 0
-85 -16 0
-86 -17 0
-87 -18 0
-112 -16 0
-113 -17 0
-114 -18 0
-58 -19 0
-59 -20 0
-60 -21 0
-106 -19 0
-107 -20 0
-108 -21 0
-115 -19 0
-116 -20 0
-117 -21 0
-118 -19 0
-119 -20 0
-120 -21 0
-52 -22 0
-53 -23 0
-54 -24 0
-61 -22 0
-62 -23 0
-63 -24 0
-82 -22 0
-83 -23 0
-84 -24 0
-100 -22 0
-101 -23 0
-102 -24 0
-103 -22 0
-104 -23 0
-105 -24 0
-112 -22 0
-113 -23 0
-114 -24 0
-124 -22 0
-125 -23 0
-126 -24 0
-148 -22 0
-149 -23 0
-150 -24 0
-64 -25 0
-65 -26 0
-66 -27 0
-85 -25 0
-86 -26 0
-87 -27 0
-133 -25 0
-134 -26 0
-135 -27 0
-142 -25 0
-143 -26 0
-144 -27 0
-52 -28 0
-53 -29 0
-54 -30 0
-121 -28 0
-122 -29 0
-123 -30 0
-145 -28 0
-146 -29 0
-147 -30 0
-73 -31 0
-74 -32 0
-75 -33 0
-82 -31 0
-83 -32 0
-84 -33 0
-124 -31 0
-125 -32 0
-126 -33 0
-130 -31 0
-131 -32 0
-132 -33 0
-82 -34 0
-83 -35 0
-84 -36 0
-94 -34 0
-95 -35 0
-96 -36 0
-97 -34 0
-98 -35 0
-99 -36 0
-115 -34 0
-116 -35 0
-117 -36 0
-145 -34 0
-146 -35 0
-147 -36 0
-52 -37 0
-53 -38 0
-54 -39 0
-58 -37 0
-59 -38 0
-60 -39 0
-94 -37 0
-95 -38 0
-96 -39 0
-130 -37 0
-131 -38 0
-132 -39 0
-136 -37 0
-137 -38 0
-138 -39 0
-97 -40 0
-98 -41 0
-99 -42 0
-118 -40 0
-119 -41 0
-120 -42 0
-133 -40 0
-134 -41 0
-135 -42 0
-61 -43 0
-62 -44 0
-63 -45 0
-67 -43 0
-68 -44 0
-69 -45 0
-70 -43 0
-71 -44 0
-72 -45 0
-94 -43 0
-95 -44 0
-96 -45 0
-124 -43 0
-125 -44 0
-126 -45 0
-70 -46 0
-71 -47 0
-72 -48 0
-94 -46 0
-95 -47 0
-96 -48 0
-106 -46 0
-107 -47 0
-108 -48 0
-127 -46 0
-128 -47 0
-129 -48 0
-148 -46 0
-149 -47 0
-150 -48 0
-52 -49 0
-53 -50 0
-54 -51 0
-58 -49 0
-59 -50 0
-60 -51 0
-115 -49 0
-116 -50 0
-117 -51 0
-124 -49 0
-125 -50 0
-126 -51 0
-103 -52 0
-104 -53 0
-105 -54 0
-133 -52 0
-134 -53 0
-135 -54 0
-127 -55 0
-128 -56 0
-129 -57 0
-148 -58 0
-149 -59 0
-150 -60 0
-112 -61 0
-113 -62 0
-114 -63 0
-124 -61 0
-125 -62 0
-126 -63 0
-136 -61 0
-137 -62 0
-138 -63 0
-145 -61 0
-146 -62 0
-147 -63 0
-133 -64 0
-134 -65 0
-135 -66 0
-136 -64 0
-137 -65 0
-138 -66 0
-142 -64 0
-143 -65 0
-144 -66 0
-106 -67 0
-107 -68 0
-108 -69 0
-118 -67 0
-119 -68 0
-120 -69 0
-109 -70 0
-110 -71 0
-111 -72 0
-112 -70 0
-113 -71 0
-114 -72 0
-115 -70 0
-116 -71 0
-117 -72 0
-121 -70 0
-122 -71 0
-123 -72 0
-118 -73 0
-119 -74 0
-120 -75 0
-121 -73 0
-122 -74 0
-123 -75 0
-136 -76 0
-137 -77 0
-138 -78 0
-118 -79 0
-119 -80 0
-120 -81 0
-127 -79 0
-128 -80 0
-129 -81 0
-130 -79 0
-131 -80 0
-132 -81 0
-133 -79 0
-134 -80 0
-135 -81 0
-115 -82 0
-116 -83 0
-117 -84 0
-124 -82 0
-125 -83 0
-126 -84 0
-133 -82 0
-134 -83 0
-135 -84 0
-148 -82 0
-149 -83 0
-150 -84 0
-148 -85 0
-149 -86 0
-150 -87 0
-103 -88 0
-104 -89 0
-105 -90 0
-115 -88 0
-116 -89 0
-117 -90 0
-118 -91 0
-119 -92 0
-120 -93 0
-121 -91 0
-122 -92 0
-123 -93 0
-130 -94 0
-131 -95 0
-132 -96 0
-103 -97 0
-104 -98 0
-105 -99 0
-112 -97 0
-113 -98 0
-114 -99 0
-136 -97 0
-137 -98 0
-138 -99 0
-127 -100 0
-128 -101 0
-129 -102 0
